NAME : tsp_223_sol.txt
COMMENT : OR-Tools Guided Local Search
TYPE : TOUR
DIMENSION : 50
COST : 5534
STATUS : ROUTING_SUCCESS
GAP : 0.00% (Reference Solution)
TOUR_SECTION
1
22
20
11
50
36
9
30
17
34
49
48
18
19
21
25
45
38
12
13
41
33
3
10
14
32
31
7
47
46
23
5
16
6
24
8
15
40
2
42
26
35
39
4
37
43
44
27
29
28
-1
